
******************************************************************************
This program contains Ipopt, a library for large-scale nonlinear optimization.
 Ipopt is released as open source code under the Eclipse Public License (EPL).
         For more information visit http://projects.coin-or.org/Ipopt

This version of Ipopt was compiled from source code available at
    https://github.com/IDAES/Ipopt as part of the Institute for the Design of
    Advanced Energy Systems Process Systems Engineering Framework (IDAES PSE
    Framework) Copyright (c) 2018-2019. See https://github.com/IDAES/idaes-pse.

This version of Ipopt was compiled using HSL, a collection of Fortran codes
    for large-scale scientific computation.  All technical papers, sales and
    publicity material resulting from use of the HSL codes within IPOPT must
    contain the following acknowledgement:
        HSL, a collection of Fortran codes for large-scale scientific
        computation. See http://www.hsl.rl.ac.uk.
******************************************************************************

This is Ipopt version 3.13.2, running with linear solver ma27.

Number of nonzeros in equality constraint Jacobian...:      958
Number of nonzeros in inequality constraint Jacobian.:        0
Number of nonzeros in Lagrangian Hessian.............:      832

Total number of variables............................:      416
                     variables with only lower bounds:      128
                variables with lower and upper bounds:      224
                     variables with only upper bounds:        0
Total number of equality constraints.................:      415
Total number of inequality constraints...............:        0
        inequality constraints with only lower bounds:        0
   inequality constraints with lower and upper bounds:        0
        inequality constraints with only upper bounds:        0

iter    objective    inf_pr   inf_du lg(mu)  ||d||  lg(rg) alpha_du alpha_pr  ls
   0  0.0000000e+00 2.86e-01 8.88e-16  -1.0 0.00e+00    -  0.00e+00 0.00e+00   0
   1  2.4181814e-01 1.68e-01 1.36e+03  -1.0 1.19e+05    -  7.79e-01 3.15e-01h  1
   2  2.5047468e-01 1.66e-01 1.34e+03  -1.0 8.35e+04    -  8.60e-01 8.51e-03h  1
   3  5.7014210e+00 1.37e-02 5.71e+03  -1.0 1.29e+05    -  8.50e-01 9.90e-01h  1
   4  6.6392150e+00 2.44e-04 7.92e+01  -1.0 1.33e+04    -  9.77e-01 9.90e-01h  1
   5  6.6602142e+00 2.49e-06 1.61e+00  -1.0 3.48e+02    -  9.90e-01 9.90e-01h  1
   6  6.7498754e+00 1.15e-05 3.00e+02  -1.0 2.01e+03    -  9.90e-01 9.90e-01h  1
   7  6.7024312e+00 8.90e-06 2.22e+07  -2.5 2.26e+03    -  9.97e-01 4.64e-01h  2
   8  6.6574356e+00 2.92e-06 2.82e+05  -2.5 1.00e+03    -  1.00e+00 9.97e-01h  1
   9  6.6579091e+00 9.29e-09 7.76e+07  -2.5 1.09e+01    -  1.00e+00 9.97e-01h  1
iter    objective    inf_pr   inf_du lg(mu)  ||d||  lg(rg) alpha_du alpha_pr  ls
  10  6.6579101e+00 2.73e-11 2.74e+10  -2.5 2.29e-02    -  1.00e+00 9.97e-01h  1
In iteration 10, 32 Slacks too small, adjusting variable bounds
  11  6.6579101e+00 4.21e-12 9.70e+12  -2.5 6.49e-05    -  1.00e+00 9.97e-01h  1
  12  6.6579101e+00 5.47e-12 3.39e+15  -2.5 5.45e-07    -  1.00e+00 7.81e-03h  8
  13  6.6579101e+00 5.47e-12 3.39e+15  -2.5 1.79e-07    -  1.00e+00 6.10e-05h 15
  14  6.6579101e+00 5.47e-12 3.39e+15  -2.5 1.81e-07    -  1.00e+00 1.22e-04h 14
  15  6.6579101e+00 2.04e-12 2.54e+15  -2.5 1.90e-07    -  1.00e+00 2.50e-01h  3
  16  6.6579101e+00 7.37e-12 2.83e-01  -2.5 2.66e-07    -  1.00e+00 1.00e+00s 22
  17  6.6550707e+00 1.36e-08 9.08e-04  -9.0 6.36e+01    -  9.96e-01 9.96e-01s 22
  18  6.6550707e+00 1.16e-11 1.06e-06  -9.0 2.51e-03    -  1.00e+00 1.00e+00s 22

Number of Iterations....: 18

                                   (scaled)                 (unscaled)
Objective...............:   6.6550707024717131e+00    6.6550707024717131e+00
Dual infeasibility......:   1.0607764124870300e-06    1.0607764124870300e-06
Constraint violation....:   1.1596945626024535e-11    1.1596945626024535e-11
Complementarity.........:   9.0997889544292527e-10    9.0997889544292527e-10
Overall NLP error.......:   5.2537403836183985e-10    1.0607764124870300e-06


Number of objective function evaluations             = 88
Number of objective gradient evaluations             = 19
Number of equality constraint evaluations            = 88
Number of inequality constraint evaluations          = 0
Number of equality constraint Jacobian evaluations   = 19
Number of inequality constraint Jacobian evaluations = 0
Number of Lagrangian Hessian evaluations             = 18
Total CPU secs in IPOPT (w/o function evaluations)   =      0.043
Total CPU secs in NLP function evaluations           =      0.787

EXIT: Optimal Solution Found.
